\ SCIP STATISTICS
\   Problem name     : CapacitatedFacilityLocation-20-10
\   Variables        : 210 (210 binary, 0 integer, 0 implicit integer, 0 continuous)
\   Constraints      : 231
Minimize
 Obj: +1285.96736459909 x0 +1187.36892330463 x1 +988.981366279909 x2 +1265.84704899411 x3 +1230.38665464474 x4
      +873.474409052152 x5 +1132.70799029668 x6 +1183.96592795532 x7 +1276.95202129185 x8 +711.49979983984 x9
      +45.6552793197807 x10 +53.27707535659 x11 +82.4067257636107 x12 +47.4934336394288 x13 +34.8919860196685 x14
      +70.0235594040215 x15 +84.1128369231972 x16 +87.5692772654314 x17 +54.7250839202642 x18 +25.2723792832784 x19
      +70.0439532878839 x20 +74.0394353060388 x21 +28.4765751084772 x22 +61.0403900890538 x23 +59.3609282790738 x24
      +16.1819295654003 x25 +71.9686084674297 x26 +32.4255528551075 x27 +9.72664258466551 x28 +34.8825199355129 x29
      +63.0402695038448 x30 +67.9817443843735 x31 +44.5759677370672 x32 +54.0909248846528 x33 +50.8379346990449 x34
      +32.2316515702055 x35 +72.7369202942355 x36 +49.6922663216782 x37 +17.0106725043711 x38 +30.5162865774109 x39
      +83.7110166717414 x40 +99.490439981108 x41 +266.039219711453 x42 +54.7709619224011 x43 +44.68526852547 x44
      +237.148203957549 x45 +180.633394491238 x46 +285.612890935762 x47 +179.337242494811 x48 +183.430966508997 x49
      +72.3547889982285 x50 +61.2969248259538 x51 +245.089379044167 x52 +34.5264008330041 x53 +76.9785226849622 x54
      +232.363663238427 x55 +88.5599999183213 x56 +260.107769807965 x57 +190.564305536425 x58 +222.128771209243 x59
      +17.2274376477459 x60 +22.4460213309218 x61 +59.5539739484223 x62 +20.7868245743493 x63 +11.1598287370513 x64
      +52.5542679128626 x65 +47.7598637651457 x66 +63.1909616615046 x67 +41.5986258903584 x68 +29.8203386832318 x69
      +100.79966965424 x70 +105.583642058118 x71 +42.6593675553885 x72 +83.0776955015688 x73 +84.7473482056824 x74
      +29.4822287790781 x75 +94.0451700513678 x76 +50.5392031439753 x77 +8.16080077977003 x78 +68.9353001377363 x79
      +211.043727286924 x80 +221.465908002209 x81 +69.2436231842379 x82 +180.945807391332 x83 +179.992312337058 x84
      +34.4453368061893 x85 +204.184368969048 x86 +82.0821248811581 x87 +15.9683240680185 x88 +121.454439583213 x89
      +180.459325240874 x90 +190.313938035055 x91 +74.3756101707296 x92 +153.517033608612 x93 +151.843353986326 x94
      +44.212420062331 x95 +179.635810642088 x96 +86.7219547329735 x97 +9.89882392805015 x98 +102.918573179255 x99
      +17.6883890055377 x100 +18.7825262555241 x101 +36.8767222532784 x102 +9.93911995543562 x103 +13.0235329328233 x104
      +33.314947482814 x105 +22.9067274420036 x106 +39.8944588778682 x107 +24.7585868259224 x108 +31.450653338356 x109
      +33.5813365321078 x110 +51.1489120380402 x111 +242.298088271724 x112 +38.5670331845635 x113 +2.42786274170059 x114
      +219.235407887275 x115 +153.644701918904 x116 +257.592218949664 x117 +173.796249697593 x118 +159.9637606129 x119
      +65.9254321231841 x120 +62.5596834418498 x121 +63.2403990112582 x122 +52.3712733775212 x123 +64.4215206055535 x124
      +67.1089388844671 x125 +18.4608449257083 x126 +66.1362094620466 x127 +61.7483837715932 x128 +92.396995152815 x129
      +130.572618772865 x130 +156.646524951567 x131 +292.668403922353 x132 +143.990046872165 x133 +98.2432361002042 x134
      +253.164175772305 x135 +273.19358735031 x136 +310.280812801919 x137 +200.493791928297 x138 +111.33502663492 x139
      +185.371402997682 x140 +201.872142100306 x141 +195.334572425815 x142 +147.570953414538 x143 +140.909495711905 x144
      +158.38180364455 x145 +225.497739423754 x146 +216.015524603396 x147 +96.0018246214965 x148 +143.54408560436 x149
      +99.0167040162406 x150 +103.015836944406 x151 +53.1113789570865 x152 +78.2399971508834 x153 +82.9338530508089 x154
      +43.6210599259275 x155 +86.6016285122495 x156 +61.6468512910705 x157 +23.4713389038359 x158 +81.6045027178878 x159
      +50.0435885851954 x160 +48.1589063580924 x161 +46.4739865196968 x162 +37.6152200569582 x163 +47.1682803558658 x164
      +48.3649395259556 x165 +16.3784630838562 x166 +49.5381735303555 x167 +42.5050747808337 x168 +68.7807532845786 x169
      +8.53607176814739 x170 +3.80498963993017 x171 +85.7238416534177 x172 +10.9496737056266 x173 +16.140767983257 x174
      +80.0581372370799 x175 +41.8406972809939 x176 +90.5202160389975 x177 +66.0988535819124 x178 +66.5558713026697 x179
      +102.703186078167 x180 +96.7335233434058 x181 +144.653264183535 x182 +69.5743603914334 x183 +97.5931417237005 x184
      +143.113814373573 x185 +31.1215276351243 x186 +154.440599119989 x187 +119.692331930707 x188 +173.914750015699 x189
      +90.7133522424715 x190 +96.1374184443064 x191 +39.6851070529375 x192 +80.3778471361113 x193 +77.137068293332 x194
      +24.0459744843786 x195 +96.002021030181 x196 +44.1051045240339 x197 +18.6331309592368 x198 +40.3864843135583 x199
      +104.948622669204 x200 +111.352074377623 x201 +49.8812657385052 x202 +90.2043869505844 x203 +87.6693848442704 x204
      +31.1588561200231 x205 +109.425681483305 x206 +56.9587344596819 x207 +12.3797585518326 x208 +54.2224753853747 x209
Subject to
 c0: +1 x10 +1 x11 +1 x12 +1 x13 +1 x14 +1 x15 +1 x16 +1 x17 +1 x18 +1 x19 >= +1
 c1: +1 x20 +1 x21 +1 x22 +1 x23 +1 x24 +1 x25 +1 x26 +1 x27 +1 x28 +1 x29 >= +1
 c2: +1 x30 +1 x31 +1 x32 +1 x33 +1 x34 +1 x35 +1 x36 +1 x37 +1 x38 +1 x39 >= +1
 c3: +1 x40 +1 x41 +1 x42 +1 x43 +1 x44 +1 x45 +1 x46 +1 x47 +1 x48 +1 x49 >= +1
 c4: +1 x50 +1 x51 +1 x52 +1 x53 +1 x54 +1 x55 +1 x56 +1 x57 +1 x58 +1 x59 >= +1
 c5: +1 x60 +1 x61 +1 x62 +1 x63 +1 x64 +1 x65 +1 x66 +1 x67 +1 x68 +1 x69 >= +1
 c6: +1 x70 +1 x71 +1 x72 +1 x73 +1 x74 +1 x75 +1 x76 +1 x77 +1 x78 +1 x79 >= +1
 c7: +1 x80 +1 x81 +1 x82 +1 x83 +1 x84 +1 x85 +1 x86 +1 x87 +1 x88 +1 x89 >= +1
 c8: +1 x90 +1 x91 +1 x92 +1 x93 +1 x94 +1 x95 +1 x96 +1 x97 +1 x98 +1 x99 >= +1
 c9: +1 x100 +1 x101 +1 x102 +1 x103 +1 x104 +1 x105 +1 x106 +1 x107 +1 x108 +1 x109 >= +1
 c10: +1 x110 +1 x111 +1 x112 +1 x113 +1 x114 +1 x115 +1 x116 +1 x117 +1 x118 +1 x119 >= +1
 c11: +1 x120 +1 x121 +1 x122 +1 x123 +1 x124 +1 x125 +1 x126 +1 x127 +1 x128 +1 x129 >= +1
 c12: +1 x130 +1 x131 +1 x132 +1 x133 +1 x134 +1 x135 +1 x136 +1 x137 +1 x138 +1 x139 >= +1
 c13: +1 x140 +1 x141 +1 x142 +1 x143 +1 x144 +1 x145 +1 x146 +1 x147 +1 x148 +1 x149 >= +1
 c14: +1 x150 +1 x151 +1 x152 +1 x153 +1 x154 +1 x155 +1 x156 +1 x157 +1 x158 +1 x159 >= +1
 c15: +1 x160 +1 x161 +1 x162 +1 x163 +1 x164 +1 x165 +1 x166 +1 x167 +1 x168 +1 x169 >= +1
 c16: +1 x170 +1 x171 +1 x172 +1 x173 +1 x174 +1 x175 +1 x176 +1 x177 +1 x178 +1 x179 >= +1
 c17: +1 x180 +1 x181 +1 x182 +1 x183 +1 x184 +1 x185 +1 x186 +1 x187 +1 x188 +1 x189 >= +1
 c18: +1 x190 +1 x191 +1 x192 +1 x193 +1 x194 +1 x195 +1 x196 +1 x197 +1 x198 +1 x199 >= +1
 c19: +1 x200 +1 x201 +1 x202 +1 x203 +1 x204 +1 x205 +1 x206 +1 x207 +1 x208 +1 x209 >= +1
 c20: +9 x10 +8 x20 +9 x30 +32 x40 +26 x50 +6 x60 +13 x70 +24 x80 +22 x90 +5 x100 +25 x110 +8 x120 +30 x130
  +34 x140 +14 x150 +7 x160 +8 x170 +19 x180 +10 x190 +13 x200 -226 x0 <= +0
 c21: +9 x11 +8 x21 +9 x31 +32 x41 +26 x51 +6 x61 +13 x71 +24 x81 +22 x91 +5 x101 +25 x111 +8 x121 +30 x131
  +34 x141 +14 x151 +7 x161 +8 x171 +19 x181 +10 x191 +13 x201 -158 x1 <= +0
 c22: +9 x12 +8 x22 +9 x32 +32 x42 +26 x52 +6 x62 +13 x72 +24 x82 +22 x92 +5 x102 +25 x112 +8 x122 +30 x132
  +34 x142 +14 x152 +7 x162 +8 x172 +19 x182 +10 x192 +13 x202 -117 x2 <= +0
 c23: +9 x13 +8 x23 +9 x33 +32 x43 +26 x53 +6 x63 +13 x73 +24 x83 +22 x93 +5 x103 +25 x113 +8 x123 +30 x133
  +34 x143 +14 x153 +7 x163 +8 x173 +19 x183 +10 x193 +13 x203 -185 x3 <= +0
 c24: +9 x14 +8 x24 +9 x34 +32 x44 +26 x54 +6 x64 +13 x74 +24 x84 +22 x94 +5 x104 +25 x114 +8 x124 +30 x134
  +34 x144 +14 x154 +7 x164 +8 x174 +19 x184 +10 x194 +13 x204 -208 x4 <= +0
 c25: +9 x15 +8 x25 +9 x35 +32 x45 +26 x55 +6 x65 +13 x75 +24 x85 +22 x95 +5 x105 +25 x115 +8 x125 +30 x135
  +34 x145 +14 x155 +7 x165 +8 x175 +19 x185 +10 x195 +13 x205 -92 x5 <= +0
 c26: +9 x16 +8 x26 +9 x36 +32 x46 +26 x56 +6 x66 +13 x76 +24 x86 +22 x96 +5 x106 +25 x116 +8 x126 +30 x136
  +34 x146 +14 x156 +7 x166 +8 x176 +19 x186 +10 x196 +13 x206 -163 x6 <= +0
 c27: +9 x17 +8 x27 +9 x37 +32 x47 +26 x57 +6 x67 +13 x77 +24 x87 +22 x97 +5 x107 +25 x117 +8 x127 +30 x137
  +34 x147 +14 x157 +7 x167 +8 x177 +19 x187 +10 x197 +13 x207 -170 x7 <= +0
 c28: +9 x18 +8 x28 +9 x38 +32 x48 +26 x58 +6 x68 +13 x78 +24 x88 +22 x98 +5 x108 +25 x118 +8 x128 +30 x138
  +34 x148 +14 x158 +7 x168 +8 x178 +19 x188 +10 x198 +13 x208 -233 x8 <= +0
 c29: +9 x19 +8 x29 +9 x39 +32 x49 +26 x59 +6 x69 +13 x79 +24 x89 +22 x99 +5 x109 +25 x119 +8 x129 +30 x139
  +34 x149 +14 x159 +7 x169 +8 x179 +19 x189 +10 x199 +13 x209 -57 x9 <= +0
 c30: +226 x0 +158 x1 +117 x2 +185 x3 +208 x4 +92 x5 +163 x6 +170 x7 +233 x8 +57 x9 >= +322
 c31: +1 x10 -1 x0 <= +0
 c32: +1 x11 -1 x1 <= +0
 c33: +1 x12 -1 x2 <= +0
 c34: +1 x13 -1 x3 <= +0
 c35: +1 x14 -1 x4 <= +0
 c36: +1 x15 -1 x5 <= +0
 c37: +1 x16 -1 x6 <= +0
 c38: +1 x17 -1 x7 <= +0
 c39: +1 x18 -1 x8 <= +0
 c40: +1 x19 -1 x9 <= +0
 c41: +1 x20 -1 x0 <= +0
 c42: +1 x21 -1 x1 <= +0
 c43: +1 x22 -1 x2 <= +0
 c44: +1 x23 -1 x3 <= +0
 c45: +1 x24 -1 x4 <= +0
 c46: +1 x25 -1 x5 <= +0
 c47: +1 x26 -1 x6 <= +0
 c48: +1 x27 -1 x7 <= +0
 c49: +1 x28 -1 x8 <= +0
 c50: +1 x29 -1 x9 <= +0
 c51: +1 x30 -1 x0 <= +0
 c52: +1 x31 -1 x1 <= +0
 c53: +1 x32 -1 x2 <= +0
 c54: +1 x33 -1 x3 <= +0
 c55: +1 x34 -1 x4 <= +0
 c56: +1 x35 -1 x5 <= +0
 c57: +1 x36 -1 x6 <= +0
 c58: +1 x37 -1 x7 <= +0
 c59: +1 x38 -1 x8 <= +0
 c60: +1 x39 -1 x9 <= +0
 c61: +1 x40 -1 x0 <= +0
 c62: +1 x41 -1 x1 <= +0
 c63: +1 x42 -1 x2 <= +0
 c64: +1 x43 -1 x3 <= +0
 c65: +1 x44 -1 x4 <= +0
 c66: +1 x45 -1 x5 <= +0
 c67: +1 x46 -1 x6 <= +0
 c68: +1 x47 -1 x7 <= +0
 c69: +1 x48 -1 x8 <= +0
 c70: +1 x49 -1 x9 <= +0
 c71: +1 x50 -1 x0 <= +0
 c72: +1 x51 -1 x1 <= +0
 c73: +1 x52 -1 x2 <= +0
 c74: +1 x53 -1 x3 <= +0
 c75: +1 x54 -1 x4 <= +0
 c76: +1 x55 -1 x5 <= +0
 c77: +1 x56 -1 x6 <= +0
 c78: +1 x57 -1 x7 <= +0
 c79: +1 x58 -1 x8 <= +0
 c80: +1 x59 -1 x9 <= +0
 c81: +1 x60 -1 x0 <= +0
 c82: +1 x61 -1 x1 <= +0
 c83: +1 x62 -1 x2 <= +0
 c84: +1 x63 -1 x3 <= +0
 c85: +1 x64 -1 x4 <= +0
 c86: +1 x65 -1 x5 <= +0
 c87: +1 x66 -1 x6 <= +0
 c88: +1 x67 -1 x7 <= +0
 c89: +1 x68 -1 x8 <= +0
 c90: +1 x69 -1 x9 <= +0
 c91: +1 x70 -1 x0 <= +0
 c92: +1 x71 -1 x1 <= +0
 c93: +1 x72 -1 x2 <= +0
 c94: +1 x73 -1 x3 <= +0
 c95: +1 x74 -1 x4 <= +0
 c96: +1 x75 -1 x5 <= +0
 c97: +1 x76 -1 x6 <= +0
 c98: +1 x77 -1 x7 <= +0
 c99: +1 x78 -1 x8 <= +0
 c100: +1 x79 -1 x9 <= +0
 c101: +1 x80 -1 x0 <= +0
 c102: +1 x81 -1 x1 <= +0
 c103: +1 x82 -1 x2 <= +0
 c104: +1 x83 -1 x3 <= +0
 c105: +1 x84 -1 x4 <= +0
 c106: +1 x85 -1 x5 <= +0
 c107: +1 x86 -1 x6 <= +0
 c108: +1 x87 -1 x7 <= +0
 c109: +1 x88 -1 x8 <= +0
 c110: +1 x89 -1 x9 <= +0
 c111: +1 x90 -1 x0 <= +0
 c112: +1 x91 -1 x1 <= +0
 c113: +1 x92 -1 x2 <= +0
 c114: +1 x93 -1 x3 <= +0
 c115: +1 x94 -1 x4 <= +0
 c116: +1 x95 -1 x5 <= +0
 c117: +1 x96 -1 x6 <= +0
 c118: +1 x97 -1 x7 <= +0
 c119: +1 x98 -1 x8 <= +0
 c120: +1 x99 -1 x9 <= +0
 c121: +1 x100 -1 x0 <= +0
 c122: +1 x101 -1 x1 <= +0
 c123: +1 x102 -1 x2 <= +0
 c124: +1 x103 -1 x3 <= +0
 c125: +1 x104 -1 x4 <= +0
 c126: +1 x105 -1 x5 <= +0
 c127: +1 x106 -1 x6 <= +0
 c128: +1 x107 -1 x7 <= +0
 c129: +1 x108 -1 x8 <= +0
 c130: +1 x109 -1 x9 <= +0
 c131: +1 x110 -1 x0 <= +0
 c132: +1 x111 -1 x1 <= +0
 c133: +1 x112 -1 x2 <= +0
 c134: +1 x113 -1 x3 <= +0
 c135: +1 x114 -1 x4 <= +0
 c136: +1 x115 -1 x5 <= +0
 c137: +1 x116 -1 x6 <= +0
 c138: +1 x117 -1 x7 <= +0
 c139: +1 x118 -1 x8 <= +0
 c140: +1 x119 -1 x9 <= +0
 c141: +1 x120 -1 x0 <= +0
 c142: +1 x121 -1 x1 <= +0
 c143: +1 x122 -1 x2 <= +0
 c144: +1 x123 -1 x3 <= +0
 c145: +1 x124 -1 x4 <= +0
 c146: +1 x125 -1 x5 <= +0
 c147: +1 x126 -1 x6 <= +0
 c148: +1 x127 -1 x7 <= +0
 c149: +1 x128 -1 x8 <= +0
 c150: +1 x129 -1 x9 <= +0
 c151: +1 x130 -1 x0 <= +0
 c152: +1 x131 -1 x1 <= +0
 c153: +1 x132 -1 x2 <= +0
 c154: +1 x133 -1 x3 <= +0
 c155: +1 x134 -1 x4 <= +0
 c156: +1 x135 -1 x5 <= +0
 c157: +1 x136 -1 x6 <= +0
 c158: +1 x137 -1 x7 <= +0
 c159: +1 x138 -1 x8 <= +0
 c160: +1 x139 -1 x9 <= +0
 c161: +1 x140 -1 x0 <= +0
 c162: +1 x141 -1 x1 <= +0
 c163: +1 x142 -1 x2 <= +0
 c164: +1 x143 -1 x3 <= +0
 c165: +1 x144 -1 x4 <= +0
 c166: +1 x145 -1 x5 <= +0
 c167: +1 x146 -1 x6 <= +0
 c168: +1 x147 -1 x7 <= +0
 c169: +1 x148 -1 x8 <= +0
 c170: +1 x149 -1 x9 <= +0
 c171: +1 x150 -1 x0 <= +0
 c172: +1 x151 -1 x1 <= +0
 c173: +1 x152 -1 x2 <= +0
 c174: +1 x153 -1 x3 <= +0
 c175: +1 x154 -1 x4 <= +0
 c176: +1 x155 -1 x5 <= +0
 c177: +1 x156 -1 x6 <= +0
 c178: +1 x157 -1 x7 <= +0
 c179: +1 x158 -1 x8 <= +0
 c180: +1 x159 -1 x9 <= +0
 c181: +1 x160 -1 x0 <= +0
 c182: +1 x161 -1 x1 <= +0
 c183: +1 x162 -1 x2 <= +0
 c184: +1 x163 -1 x3 <= +0
 c185: +1 x164 -1 x4 <= +0
 c186: +1 x165 -1 x5 <= +0
 c187: +1 x166 -1 x6 <= +0
 c188: +1 x167 -1 x7 <= +0
 c189: +1 x168 -1 x8 <= +0
 c190: +1 x169 -1 x9 <= +0
 c191: +1 x170 -1 x0 <= +0
 c192: +1 x171 -1 x1 <= +0
 c193: +1 x172 -1 x2 <= +0
 c194: +1 x173 -1 x3 <= +0
 c195: +1 x174 -1 x4 <= +0
 c196: +1 x175 -1 x5 <= +0
 c197: +1 x176 -1 x6 <= +0
 c198: +1 x177 -1 x7 <= +0
 c199: +1 x178 -1 x8 <= +0
 c200: +1 x179 -1 x9 <= +0
 c201: +1 x180 -1 x0 <= +0
 c202: +1 x181 -1 x1 <= +0
 c203: +1 x182 -1 x2 <= +0
 c204: +1 x183 -1 x3 <= +0
 c205: +1 x184 -1 x4 <= +0
 c206: +1 x185 -1 x5 <= +0
 c207: +1 x186 -1 x6 <= +0
 c208: +1 x187 -1 x7 <= +0
 c209: +1 x188 -1 x8 <= +0
 c210: +1 x189 -1 x9 <= +0
 c211: +1 x190 -1 x0 <= +0
 c212: +1 x191 -1 x1 <= +0
 c213: +1 x192 -1 x2 <= +0
 c214: +1 x193 -1 x3 <= +0
 c215: +1 x194 -1 x4 <= +0
 c216: +1 x195 -1 x5 <= +0
 c217: +1 x196 -1 x6 <= +0
 c218: +1 x197 -1 x7 <= +0
 c219: +1 x198 -1 x8 <= +0
 c220: +1 x199 -1 x9 <= +0
 c221: +1 x200 -1 x0 <= +0
 c222: +1 x201 -1 x1 <= +0
 c223: +1 x202 -1 x2 <= +0
 c224: +1 x203 -1 x3 <= +0
 c225: +1 x204 -1 x4 <= +0
 c226: +1 x205 -1 x5 <= +0
 c227: +1 x206 -1 x6 <= +0
 c228: +1 x207 -1 x7 <= +0
 c229: +1 x208 -1 x8 <= +0
 c230: +1 x209 -1 x9 <= +0
Bounds
 0 <= x0 <= 1
 0 <= x1 <= 1
 0 <= x2 <= 1
 0 <= x3 <= 1
 0 <= x4 <= 1
 0 <= x5 <= 1
 0 <= x6 <= 1
 0 <= x7 <= 1
 0 <= x8 <= 1
 0 <= x9 <= 1
 0 <= x10 <= 1
 0 <= x11 <= 1
 0 <= x12 <= 1
 0 <= x13 <= 1
 0 <= x14 <= 1
 0 <= x15 <= 1
 0 <= x16 <= 1
 0 <= x17 <= 1
 0 <= x18 <= 1
 0 <= x19 <= 1
 0 <= x20 <= 1
 0 <= x21 <= 1
 0 <= x22 <= 1
 0 <= x23 <= 1
 0 <= x24 <= 1
 0 <= x25 <= 1
 0 <= x26 <= 1
 0 <= x27 <= 1
 0 <= x28 <= 1
 0 <= x29 <= 1
 0 <= x30 <= 1
 0 <= x31 <= 1
 0 <= x32 <= 1
 0 <= x33 <= 1
 0 <= x34 <= 1
 0 <= x35 <= 1
 0 <= x36 <= 1
 0 <= x37 <= 1
 0 <= x38 <= 1
 0 <= x39 <= 1
 0 <= x40 <= 1
 0 <= x41 <= 1
 0 <= x42 <= 1
 0 <= x43 <= 1
 0 <= x44 <= 1
 0 <= x45 <= 1
 0 <= x46 <= 1
 0 <= x47 <= 1
 0 <= x48 <= 1
 0 <= x49 <= 1
 0 <= x50 <= 1
 0 <= x51 <= 1
 0 <= x52 <= 1
 0 <= x53 <= 1
 0 <= x54 <= 1
 0 <= x55 <= 1
 0 <= x56 <= 1
 0 <= x57 <= 1
 0 <= x58 <= 1
 0 <= x59 <= 1
 0 <= x60 <= 1
 0 <= x61 <= 1
 0 <= x62 <= 1
 0 <= x63 <= 1
 0 <= x64 <= 1
 0 <= x65 <= 1
 0 <= x66 <= 1
 0 <= x67 <= 1
 0 <= x68 <= 1
 0 <= x69 <= 1
 0 <= x70 <= 1
 0 <= x71 <= 1
 0 <= x72 <= 1
 0 <= x73 <= 1
 0 <= x74 <= 1
 0 <= x75 <= 1
 0 <= x76 <= 1
 0 <= x77 <= 1
 0 <= x78 <= 1
 0 <= x79 <= 1
 0 <= x80 <= 1
 0 <= x81 <= 1
 0 <= x82 <= 1
 0 <= x83 <= 1
 0 <= x84 <= 1
 0 <= x85 <= 1
 0 <= x86 <= 1
 0 <= x87 <= 1
 0 <= x88 <= 1
 0 <= x89 <= 1
 0 <= x90 <= 1
 0 <= x91 <= 1
 0 <= x92 <= 1
 0 <= x93 <= 1
 0 <= x94 <= 1
 0 <= x95 <= 1
 0 <= x96 <= 1
 0 <= x97 <= 1
 0 <= x98 <= 1
 0 <= x99 <= 1
 0 <= x100 <= 1
 0 <= x101 <= 1
 0 <= x102 <= 1
 0 <= x103 <= 1
 0 <= x104 <= 1
 0 <= x105 <= 1
 0 <= x106 <= 1
 0 <= x107 <= 1
 0 <= x108 <= 1
 0 <= x109 <= 1
 0 <= x110 <= 1
 0 <= x111 <= 1
 0 <= x112 <= 1
 0 <= x113 <= 1
 0 <= x114 <= 1
 0 <= x115 <= 1
 0 <= x116 <= 1
 0 <= x117 <= 1
 0 <= x118 <= 1
 0 <= x119 <= 1
 0 <= x120 <= 1
 0 <= x121 <= 1
 0 <= x122 <= 1
 0 <= x123 <= 1
 0 <= x124 <= 1
 0 <= x125 <= 1
 0 <= x126 <= 1
 0 <= x127 <= 1
 0 <= x128 <= 1
 0 <= x129 <= 1
 0 <= x130 <= 1
 0 <= x131 <= 1
 0 <= x132 <= 1
 0 <= x133 <= 1
 0 <= x134 <= 1
 0 <= x135 <= 1
 0 <= x136 <= 1
 0 <= x137 <= 1
 0 <= x138 <= 1
 0 <= x139 <= 1
 0 <= x140 <= 1
 0 <= x141 <= 1
 0 <= x142 <= 1
 0 <= x143 <= 1
 0 <= x144 <= 1
 0 <= x145 <= 1
 0 <= x146 <= 1
 0 <= x147 <= 1
 0 <= x148 <= 1
 0 <= x149 <= 1
 0 <= x150 <= 1
 0 <= x151 <= 1
 0 <= x152 <= 1
 0 <= x153 <= 1
 0 <= x154 <= 1
 0 <= x155 <= 1
 0 <= x156 <= 1
 0 <= x157 <= 1
 0 <= x158 <= 1
 0 <= x159 <= 1
 0 <= x160 <= 1
 0 <= x161 <= 1
 0 <= x162 <= 1
 0 <= x163 <= 1
 0 <= x164 <= 1
 0 <= x165 <= 1
 0 <= x166 <= 1
 0 <= x167 <= 1
 0 <= x168 <= 1
 0 <= x169 <= 1
 0 <= x170 <= 1
 0 <= x171 <= 1
 0 <= x172 <= 1
 0 <= x173 <= 1
 0 <= x174 <= 1
 0 <= x175 <= 1
 0 <= x176 <= 1
 0 <= x177 <= 1
 0 <= x178 <= 1
 0 <= x179 <= 1
 0 <= x180 <= 1
 0 <= x181 <= 1
 0 <= x182 <= 1
 0 <= x183 <= 1
 0 <= x184 <= 1
 0 <= x185 <= 1
 0 <= x186 <= 1
 0 <= x187 <= 1
 0 <= x188 <= 1
 0 <= x189 <= 1
 0 <= x190 <= 1
 0 <= x191 <= 1
 0 <= x192 <= 1
 0 <= x193 <= 1
 0 <= x194 <= 1
 0 <= x195 <= 1
 0 <= x196 <= 1
 0 <= x197 <= 1
 0 <= x198 <= 1
 0 <= x199 <= 1
 0 <= x200 <= 1
 0 <= x201 <= 1
 0 <= x202 <= 1
 0 <= x203 <= 1
 0 <= x204 <= 1
 0 <= x205 <= 1
 0 <= x206 <= 1
 0 <= x207 <= 1
 0 <= x208 <= 1
 0 <= x209 <= 1
Binaries
 x0 x1 x2 x3 x4 x5 x6 x7 x8 x9 x10 x11 x12 x13 x14 x15 x16 x17 x18 x19 x20 x21 x22 x23 x24 x25 x26 x27
 x28 x29 x30 x31 x32 x33 x34 x35 x36 x37 x38 x39 x40 x41 x42 x43 x44 x45 x46 x47 x48 x49 x50 x51 x52 x53
 x54 x55 x56 x57 x58 x59 x60 x61 x62 x63 x64 x65 x66 x67 x68 x69 x70 x71 x72 x73 x74 x75 x76 x77 x78 x79
 x80 x81 x82 x83 x84 x85 x86 x87 x88 x89 x90 x91 x92 x93 x94 x95 x96 x97 x98 x99 x100 x101 x102 x103 x104
 x105 x106 x107 x108 x109 x110 x111 x112 x113 x114 x115 x116 x117 x118 x119 x120 x121 x122 x123 x124 x125
 x126 x127 x128 x129 x130 x131 x132 x133 x134 x135 x136 x137 x138 x139 x140 x141 x142 x143 x144 x145 x146
 x147 x148 x149 x150 x151 x152 x153 x154 x155 x156 x157 x158 x159 x160 x161 x162 x163 x164 x165 x166 x167
 x168 x169 x170 x171 x172 x173 x174 x175 x176 x177 x178 x179 x180 x181 x182 x183 x184 x185 x186 x187 x188
 x189 x190 x191 x192 x193 x194 x195 x196 x197 x198 x199 x200 x201 x202 x203 x204 x205 x206 x207 x208 x209
End
